+0+P+As/+As-As-P/-P+0+0
3.440000
0.500000000  -0.866025403  0.000000000
0.500000000   0.866025403  0.000000000
0.000000000   0.000000000  10.000000000
Direct
0.3333333333 0.6666666667 0.7093023256 !As
0.3333333333 0.6666666667 0.6046511628 !As
0.0000000000 0.0000000000 0.5000000000 !As
0.6666666667 0.3333333333 0.7093023256 !P
0.0000000000 0.0000000000 0.6046511628 !P
0.3333333333 0.6666666667 0.5000000000 !P
